NAME : rnd34_50.tsp.tsp.optbc.tour
TYPE : TOUR
DIMENSION : 50
TOUR_SECTION
1
7
33
35
10
16
41
12
42
24
19
31
14
22
21
37
47
5
44
6
46
27
3
32
39
2
48
18
38
23
30
20
28
11
36
8
26
34
15
13
40
43
9
17
45
4
29
49
50
25
-1